(set-logic QF_S)
(set-info :source |
  James Brotherston, Carsten Fuhs, Nikos Gorogiannis, and Juan Navarro Pérez. 
  A decision procedure for satisfiability in separation logic with inductive 
  predicates. To appear at CSL-LICS, 2014. 
  https://github.com/ngorogiannis/cyclist/releases/tag/CSL-LICS14
|)
(set-info :smt-lib-version 2.0)
(set-info :category "crafted")
(set-info :status sat)
(set-info :version 2014-05-31)




;generic sort 

(declare-sort GTyp 0)

;generic fields 
(declare-fun f0 () (Field GTyp GTyp))
(declare-fun f1 () (Field GTyp GTyp))

;predicates 

(define-fun ls ((?a GTyp)) Space 
(tospace (or 

	(= nil ?a)


	(and (distinct nil ?a)
		 (tobool (I001 ?a)
		)
	)
))
)


(define-fun I186018 ((?a GTyp) (?b GTyp) (?c GTyp) (?d GTyp) (?e GTyp) (?f GTyp) (?g GTyp) (?h GTyp) (?i GTyp) (?j GTyp)) Space 
(I34748 ?a ?b ?c ?d ?e ?f ?g ?j))


(define-fun I185962 ((?a GTyp) (?b GTyp) (?c GTyp) (?d GTyp) (?e GTyp) (?f GTyp) (?g GTyp) (?h GTyp) (?i GTyp)) Space 

	(tospace (exists ((?a00 GTyp))
		
		 (and (distinct nil ?i)
			(tobool 
	(ssep (pto ?i  (ref f0 ?a00) )
		(I186018 ?a ?b ?c ?d ?e ?f ?g ?h ?i ?a00)
	)

		))
	))
)


(define-fun I185963 ((?a GTyp) (?b GTyp) (?c GTyp) (?d GTyp) (?e GTyp) (?f GTyp) (?g GTyp) (?h GTyp) (?i GTyp)) Space 
(I34811 ?a ?b ?c ?d ?e ?f ?g ?i))


(define-fun I185929 ((?a GTyp) (?b GTyp) (?c GTyp) (?d GTyp) (?e GTyp) (?f GTyp) (?g GTyp) (?h GTyp) (?i GTyp)) Space 
(tospace (or 

	(and (= nil ?i)
		 (tobool (I185963 ?a ?b ?c ?d ?e ?f ?g ?h ?i)
		)
	)


	(and (distinct nil ?i)
		 (tobool (I185962 ?a ?b ?c ?d ?e ?f ?g ?h ?i)
		)
	)
))
)


(define-fun I34810 ((?a GTyp) (?b GTyp) (?c GTyp) (?d GTyp) (?e GTyp) (?f GTyp) (?g GTyp) (?h GTyp)) Space 

	(tospace (exists ((?a00 GTyp))
		
		 (and (distinct nil ?h)
			(tobool 
	(ssep (pto ?h  (ref f0 ?a00) )
		(I185929 ?a ?b ?c ?d ?e ?f ?g ?h ?a00)
	)

		))
	))
)


(define-fun I58461 ((?a GTyp) (?b GTyp) (?c GTyp) (?d GTyp) (?e GTyp) (?f GTyp) (?g GTyp) (?h GTyp) (?i GTyp)) Space 
(I34811 ?i ?b ?c ?d ?e ?f ?g ?h))


(define-fun I34842 ((?a GTyp) (?b GTyp) (?c GTyp) (?d GTyp) (?e GTyp) (?f GTyp) (?g GTyp) (?h GTyp)) Space 

	(tospace (exists ((?a00 GTyp))
		
		 (and (distinct nil ?a)
			(tobool 
	(ssep (pto ?a  (ref f0 ?a00) )
		(I58461 ?a ?b ?c ?d ?e ?f ?g ?h ?a00)
	)

		))
	))
)


(define-fun I34811 ((?a GTyp) (?b GTyp) (?c GTyp) (?d GTyp) (?e GTyp) (?f GTyp) (?g GTyp) (?h GTyp)) Space 
(tospace (or 

	(= nil ?a)


	(and (distinct nil ?a)
		 (tobool (I34842 ?a ?b ?c ?d ?e ?f ?g ?h)
		)
	)
))
)


(define-fun I34748 ((?a GTyp) (?b GTyp) (?c GTyp) (?d GTyp) (?e GTyp) (?f GTyp) (?g GTyp) (?h GTyp)) Space 
(tospace (or 

	(and (= nil ?h)
		 (tobool (I34811 ?a ?b ?c ?d ?e ?f ?g ?h)
		)
	)


	(and (distinct nil ?h)
		 (tobool (I34810 ?a ?b ?c ?d ?e ?f ?g ?h)
		)
	)
))
)


(define-fun I34629 ((?a GTyp) (?b GTyp) (?c GTyp) (?d GTyp) (?e GTyp) (?f GTyp) (?g GTyp)) Space 

	(tospace (exists ((?a00 GTyp))
		
		 (and (distinct nil ?g)
			(tobool 
	(ssep (pto ?g  (ref f0 ?a00) )
		(I34748 ?a ?b ?c ?d ?e ?f ?g ?a00)
	)

		))
	))
)


(define-fun I34705 ((?a GTyp) (?b GTyp) (?c GTyp) (?d GTyp) (?e GTyp) (?f GTyp) (?g GTyp) (?h GTyp)) Space 
(I34630 ?h ?b ?c ?d ?e ?f ?g))


(define-fun I34694 ((?a GTyp) (?b GTyp) (?c GTyp) (?d GTyp) (?e GTyp) (?f GTyp) (?g GTyp)) Space 

	(tospace (exists ((?a00 GTyp))
		
		 (and (distinct nil ?a)
			(tobool 
	(ssep (pto ?a  (ref f0 ?a00) )
		(I34705 ?a ?b ?c ?d ?e ?f ?g ?a00)
	)

		))
	))
)


(define-fun I34630 ((?a GTyp) (?b GTyp) (?c GTyp) (?d GTyp) (?e GTyp) (?f GTyp) (?g GTyp)) Space 
(tospace (or 

	(= ?a ?g)


	(and (distinct ?a ?g)
		 (tobool (I34694 ?a ?b ?c ?d ?e ?f ?g)
		)
	)
))
)


(define-fun I34605 ((?a GTyp) (?b GTyp) (?c GTyp) (?d GTyp) (?e GTyp) (?f GTyp) (?g GTyp)) Space 
(tospace (or 

	(and (= nil ?g)
		 (tobool (I34630 ?a ?b ?c ?d ?e ?f ?g)
		)
	)


	(and (distinct nil ?g)
		 (tobool (I34629 ?a ?b ?c ?d ?e ?f ?g)
		)
	)
))
)


(define-fun I989 ((?a GTyp) (?b GTyp) (?c GTyp) (?d GTyp) (?e GTyp) (?f GTyp)) Space 

	(tospace (exists ((?a00 GTyp))
		
		 (and (distinct nil ?f)
			(tobool 
	(ssep (pto ?f  (ref f0 ?a00) )
		(I34605 ?a ?b ?c ?d ?e ?f ?a00)
	)

		))
	))
)


(define-fun I11058 ((?a GTyp) (?b GTyp) (?c GTyp) (?d GTyp) (?e GTyp) (?f GTyp) (?g GTyp)) Space 
(I990 ?a ?g ?c ?d ?e ?f))


(define-fun I5875 ((?a GTyp) (?b GTyp) (?c GTyp) (?d GTyp) (?e GTyp) (?f GTyp)) Space 

	(tospace (exists ((?a00 GTyp))
		
		 (and (distinct nil ?b)
			(tobool 
	(ssep (pto ?b  (ref f0 ?a00) )
		(I11058 ?a ?b ?c ?d ?e ?f ?a00)
	)

		))
	))
)


(define-fun I990 ((?a GTyp) (?b GTyp) (?c GTyp) (?d GTyp) (?e GTyp) (?f GTyp)) Space 
(tospace (or 

	(= nil ?b)


	(and (distinct nil ?b)
		 (tobool (I5875 ?a ?b ?c ?d ?e ?f)
		)
	)
))
)


(define-fun I969 ((?a GTyp) (?b GTyp) (?c GTyp) (?d GTyp) (?e GTyp) (?f GTyp)) Space 
(tospace (or 

	(and (= nil ?f)
		 (tobool (I990 ?a ?b ?c ?d ?e ?f)
		)
	)


	(and (distinct nil ?f)
		 (tobool (I989 ?a ?b ?c ?d ?e ?f)
		)
	)
))
)


(define-fun I122 ((?a GTyp) (?b GTyp) (?c GTyp) (?d GTyp) (?e GTyp)) Space 

	(tospace (exists ((?a00 GTyp))
		
		 (and (distinct nil ?e)
			(tobool 
	(ssep (pto ?e  (ref f0 ?a00) )
		(I969 ?a ?b ?c ?d ?e ?a00)
	)

		))
	))
)


(define-fun I349 ((?a GTyp) (?b GTyp) (?c GTyp) (?d GTyp) (?e GTyp) (?f GTyp)) Space 
(I123 ?f ?b ?c ?d ?e))


(define-fun I134 ((?a GTyp) (?b GTyp) (?c GTyp) (?d GTyp) (?e GTyp)) Space 

	(tospace (exists ((?a00 GTyp))
		
		 (and (distinct nil ?a)
			(tobool 
	(ssep (pto ?a  (ref f0 ?a00) )
		(I349 ?a ?b ?c ?d ?e ?a00)
	)

		))
	))
)


(define-fun I123 ((?a GTyp) (?b GTyp) (?c GTyp) (?d GTyp) (?e GTyp)) Space 
(tospace (or 

	(= ?a ?e)


	(and (distinct ?a ?e)
		 (tobool (I134 ?a ?b ?c ?d ?e)
		)
	)
))
)


(define-fun I106 ((?a GTyp) (?b GTyp) (?c GTyp) (?d GTyp) (?e GTyp)) Space 
(tospace (or 

	(and (= nil ?e)
		 (tobool (I123 ?a ?b ?c ?d ?e)
		)
	)


	(and (distinct nil ?e)
		 (tobool (I122 ?a ?b ?c ?d ?e)
		)
	)
))
)


(define-fun I046 ((?a GTyp) (?b GTyp) (?c GTyp) (?d GTyp)) Space 

	(tospace (exists ((?a00 GTyp))
		
		 (and (distinct nil ?d)
			(tobool 
	(ssep (pto ?d  (ref f0 ?a00) )
		(I106 ?a ?b ?c ?d ?a00)
	)

		))
	))
)


(define-fun I060 ((?a GTyp) (?b GTyp) (?c GTyp) (?d GTyp) (?e GTyp)) Space 
(I047 ?e ?b ?c ?d))


(define-fun I056 ((?a GTyp) (?b GTyp) (?c GTyp) (?d GTyp)) Space 

	(tospace (exists ((?a00 GTyp))
		
		 (and (distinct nil ?a)
			(tobool 
	(ssep (pto ?a  (ref f0 ?a00) )
		(I060 ?a ?b ?c ?d ?a00)
	)

		))
	))
)


(define-fun I047 ((?a GTyp) (?b GTyp) (?c GTyp) (?d GTyp)) Space 
(tospace (or 

	(= ?a ?d)


	(and (distinct ?a ?d)
		 (tobool (I056 ?a ?b ?c ?d)
		)
	)
))
)


(define-fun I034 ((?a GTyp) (?b GTyp) (?c GTyp) (?d GTyp)) Space 
(tospace (or 

	(and (= nil ?d)
		 (tobool (I047 ?a ?b ?c ?d)
		)
	)


	(and (distinct nil ?d)
		 (tobool (I046 ?a ?b ?c ?d)
		)
	)
))
)


(define-fun I021 ((?a GTyp) (?b GTyp) (?c GTyp)) Space 

	(tospace (exists ((?a00 GTyp))
		
		 (and (distinct nil ?c)
			(tobool 
	(ssep (pto ?c  (ref f0 ?a00) )
		(I034 ?a ?b ?c ?a00)
	)

		))
	))
)


(define-fun I022 ((?a GTyp) (?b GTyp) (?c GTyp)) Space 
(I008 ?b ?c))


(define-fun I013 ((?a GTyp) (?b GTyp) (?c GTyp)) Space 
(tospace (or 

	(and (= nil ?c)
		 (tobool (I022 ?a ?b ?c)
		)
	)


	(and (distinct nil ?c)
		 (tobool (I021 ?a ?b ?c)
		)
	)
))
)


(define-fun I007 ((?a GTyp) (?b GTyp)) Space 

	(tospace (exists ((?a00 GTyp))
		
		 (and (distinct nil ?b)
			(tobool 
	(ssep (pto ?b  (ref f0 ?a00) )
		(I013 ?a ?b ?a00)
	)

		))
	))
)


(define-fun I008 ((?a GTyp) (?b GTyp)) Space 
emp)


(define-fun I003 ((?a GTyp) (?b GTyp)) Space 
(tospace (or 

	(and (= nil ?b)
		 (tobool (I008 ?a ?b)
		)
	)


	(and (distinct nil ?b)
		 (tobool (I007 ?a ?b)
		)
	)
))
)


(define-fun I001 ((?a GTyp)) Space 

	(tospace (exists ((?a00 GTyp))
		
		 (and (distinct nil ?a)
			(tobool 
	(ssep (pto ?a  (ref f0 ?a00) )
		(I003 ?a ?a00)
	)

		))
	))
)


;vars 

;problem 
(declare-fun x0 () GTyp)

(assert (tobool (ls  x0)))

(check-sat)

;;pto 1

;;pto 1

;;pto 1

;;pto 1

;;pto 1

;;pto 1

;;pto 1

;;pto 1

;;pto 1

;;pto 1

;;pto 1

;;pto 1

;;pto 1

;;pto 1
